p cnf 140 552
1 2 3 4 5 6 7 8 9 10 11 0
42 43 44 45 46 47 48 49 50 51 52 53 54 55 0
96 97 98 99 100 101 102 103 104 105 106 107 108 109 0
110 111 112 113 114 115 116 117 118 119 120 121 122 123 124 0
-1 -12 0
-1 -27 0
-1 -42 0
-1 -56 0
-1 -71 0
-1 -84 0
-1 -96 0
-1 -110 0
-1 -125 0
-12 -27 0
-12 -42 0
-12 -56 0
-12 -71 0
-12 -84 0
-12 -96 0
-12 -110 0
-12 -125 0
-27 -42 0
-27 -56 0
-27 -71 0
-27 -84 0
-27 -96 0
-27 -110 0
-27 -125 0
-42 -56 0
-42 -71 0
-42 -84 0
-42 -96 0
-42 -110 0
-42 -125 0
-56 -71 0
-56 -84 0
-56 -96 0
-56 -110 0
-56 -125 0
-71 -84 0
-71 -96 0
-71 -110 0
-71 -125 0
-84 -96 0
-84 -110 0
-84 -125 0
-96 -110 0
-96 -125 0
-110 -125 0
-2 -13 0
-2 -28 0
-2 -57 0
-2 -72 0
-2 -85 0
-2 -111 0
-2 -126 0
-13 -28 0
-13 -57 0
-13 -72 0
-13 -85 0
-13 -111 0
-13 -126 0
-28 -57 0
-28 -72 0
-28 -85 0
-28 -111 0
-28 -126 0
-57 -72 0
-57 -85 0
-57 -111 0
-57 -126 0
-72 -85 0
-72 -111 0
-72 -126 0
-85 -111 0
-85 -126 0
-111 -126 0
-14 -29 0
-14 -43 0
-14 -58 0
-14 -73 0
-14 -86 0
-14 -97 0
-14 -112 0
-14 -127 0
-29 -43 0
-29 -58 0
-29 -73 0
-29 -86 0
-29 -97 0
-29 -112 0
-29 -127 0
-43 -58 0
-43 -73 0
-43 -86 0
-43 -97 0
-43 -112 0
-43 -127 0
-58 -73 0
-58 -86 0
-58 -97 0
-58 -112 0
-58 -127 0
-73 -86 0
-73 -97 0
-73 -112 0
-73 -127 0
-86 -97 0
-86 -112 0
-86 -127 0
-97 -112 0
-97 -127 0
-112 -127 0
-15 -30 0
-15 -59 0
-15 -74 0
-15 -87 0
-15 -98 0
-15 -113 0
-15 -128 0
-30 -59 0
-30 -74 0
-30 -87 0
-30 -98 0
-30 -113 0
-30 -128 0
-59 -74 0
-59 -87 0
-59 -98 0
-59 -113 0
-59 -128 0
-74 -87 0
-74 -98 0
-74 -113 0
-74 -128 0
-87 -98 0
-87 -113 0
-87 -128 0
-98 -113 0
-98 -128 0
-113 -128 0
-3 -16 0
-3 -31 0
-3 -44 0
-3 -60 0
-3 -75 0
-3 -99 0
-3 -114 0
-3 -129 0
-16 -31 0
-16 -44 0
-16 -60 0
-16 -75 0
-16 -99 0
-16 -114 0
-16 -129 0
-31 -44 0
-31 -60 0
-31 -75 0
-31 -99 0
-31 -114 0
-31 -129 0
-44 -60 0
-44 -75 0
-44 -99 0
-44 -114 0
-44 -129 0
-60 -75 0
-60 -99 0
-60 -114 0
-60 -129 0
-75 -99 0
-75 -114 0
-75 -129 0
-99 -114 0
-99 -129 0
-114 -129 0
-4 -17 0
-4 -32 0
-4 -45 0
-4 -61 0
-4 -76 0
-4 -88 0
-4 -100 0
-4 -115 0
-4 -130 0
-17 -32 0
-17 -45 0
-17 -61 0
-17 -76 0
-17 -88 0
-17 -100 0
-17 -115 0
-17 -130 0
-32 -45 0
-32 -61 0
-32 -76 0
-32 -88 0
-32 -100 0
-32 -115 0
-32 -130 0
-45 -61 0
-45 -76 0
-45 -88 0
-45 -100 0
-45 -115 0
-45 -130 0
-61 -76 0
-61 -88 0
-61 -100 0
-61 -115 0
-61 -130 0
-76 -88 0
-76 -100 0
-76 -115 0
-76 -130 0
-88 -100 0
-88 -115 0
-88 -130 0
-100 -115 0
-100 -130 0
-115 -130 0
-5 -18 0
-5 -33 0
-5 -46 0
-5 -89 0
-5 -101 0
-5 -116 0
-5 -131 0
-18 -33 0
-18 -46 0
-18 -89 0
-18 -101 0
-18 -116 0
-18 -131 0
-33 -46 0
-33 -89 0
-33 -101 0
-33 -116 0
-33 -131 0
-46 -89 0
-46 -101 0
-46 -116 0
-46 -131 0
-89 -101 0
-89 -116 0
-89 -131 0
-101 -116 0
-101 -131 0
-116 -131 0
-6 -47 0
-6 -62 0
-6 -90 0
-6 -102 0
-6 -117 0
-6 -132 0
-47 -62 0
-47 -90 0
-47 -102 0
-47 -117 0
-47 -132 0
-62 -90 0
-62 -102 0
-62 -117 0
-62 -132 0
-90 -102 0
-90 -117 0
-90 -132 0
-102 -117 0
-102 -132 0
-117 -132 0
-7 -19 0
-7 -34 0
-7 -48 0
-7 -63 0
-7 -77 0
-7 -118 0
-7 -133 0
-19 -34 0
-19 -48 0
-19 -63 0
-19 -77 0
-19 -118 0
-19 -133 0
-34 -48 0
-34 -63 0
-34 -77 0
-34 -118 0
-34 -133 0
-48 -63 0
-48 -77 0
-48 -118 0
-48 -133 0
-63 -77 0
-63 -118 0
-63 -133 0
-77 -118 0
-77 -133 0
-118 -133 0
-8 -20 0
-8 -35 0
-8 -49 0
-8 -64 0
-8 -78 0
-8 -91 0
-8 -103 0
-8 -119 0
-8 -134 0
-20 -35 0
-20 -49 0
-20 -64 0
-20 -78 0
-20 -91 0
-20 -103 0
-20 -119 0
-20 -134 0
-35 -49 0
-35 -64 0
-35 -78 0
-35 -91 0
-35 -103 0
-35 -119 0
-35 -134 0
-49 -64 0
-49 -78 0
-49 -91 0
-49 -103 0
-49 -119 0
-49 -134 0
-64 -78 0
-64 -91 0
-64 -103 0
-64 -119 0
-64 -134 0
-78 -91 0
-78 -103 0
-78 -119 0
-78 -134 0
-91 -103 0
-91 -119 0
-91 -134 0
-103 -119 0
-103 -134 0
-119 -134 0
-9 -21 0
-9 -36 0
-9 -50 0
-9 -65 0
-9 -79 0
-9 -104 0
-9 -120 0
-9 -135 0
-21 -36 0
-21 -50 0
-21 -65 0
-21 -79 0
-21 -104 0
-21 -120 0
-21 -135 0
-36 -50 0
-36 -65 0
-36 -79 0
-36 -104 0
-36 -120 0
-36 -135 0
-50 -65 0
-50 -79 0
-50 -104 0
-50 -120 0
-50 -135 0
-65 -79 0
-65 -104 0
-65 -120 0
-65 -135 0
-79 -104 0
-79 -120 0
-79 -135 0
-104 -120 0
-104 -135 0
-120 -135 0
-22 -37 0
-22 -51 0
-22 -66 0
-22 -80 0
-22 -92 0
-22 -105 0
-22 -121 0
-22 -136 0
-37 -51 0
-37 -66 0
-37 -80 0
-37 -92 0
-37 -105 0
-37 -121 0
-37 -136 0
-51 -66 0
-51 -80 0
-51 -92 0
-51 -105 0
-51 -121 0
-51 -136 0
-66 -80 0
-66 -92 0
-66 -105 0
-66 -121 0
-66 -136 0
-80 -92 0
-80 -105 0
-80 -121 0
-80 -136 0
-92 -105 0
-92 -121 0
-92 -136 0
-105 -121 0
-105 -136 0
-121 -136 0
-23 -38 0
-23 -52 0
-23 -67 0
-23 -81 0
-23 -93 0
-23 -106 0
-23 -122 0
-23 -137 0
-38 -52 0
-38 -67 0
-38 -81 0
-38 -93 0
-38 -106 0
-38 -122 0
-38 -137 0
-52 -67 0
-52 -81 0
-52 -93 0
-52 -106 0
-52 -122 0
-52 -137 0
-67 -81 0
-67 -93 0
-67 -106 0
-67 -122 0
-67 -137 0
-81 -93 0
-81 -106 0
-81 -122 0
-81 -137 0
-93 -106 0
-93 -122 0
-93 -137 0
-106 -122 0
-106 -137 0
-122 -137 0
-10 -24 0
-10 -39 0
-10 -53 0
-10 -68 0
-10 -82 0
-10 -107 0
-10 -138 0
-24 -39 0
-24 -53 0
-24 -68 0
-24 -82 0
-24 -107 0
-24 -138 0
-39 -53 0
-39 -68 0
-39 -82 0
-39 -107 0
-39 -138 0
-53 -68 0
-53 -82 0
-53 -107 0
-53 -138 0
-68 -82 0
-68 -107 0
-68 -138 0
-82 -107 0
-82 -138 0
-107 -138 0
-25 -40 0
-25 -54 0
-25 -69 0
-25 -83 0
-25 -94 0
-25 -108 0
-25 -123 0
-25 -139 0
-40 -54 0
-40 -69 0
-40 -83 0
-40 -94 0
-40 -108 0
-40 -123 0
-40 -139 0
-54 -69 0
-54 -83 0
-54 -94 0
-54 -108 0
-54 -123 0
-54 -139 0
-69 -83 0
-69 -94 0
-69 -108 0
-69 -123 0
-69 -139 0
-83 -94 0
-83 -108 0
-83 -123 0
-83 -139 0
-94 -108 0
-94 -123 0
-94 -139 0
-108 -123 0
-108 -139 0
-123 -139 0
-11 -26 0
-11 -41 0
-11 -55 0
-11 -70 0
-11 -95 0
-11 -109 0
-11 -124 0
-11 -140 0
-26 -41 0
-26 -55 0
-26 -70 0
-26 -95 0
-26 -109 0
-26 -124 0
-26 -140 0
-41 -55 0
-41 -70 0
-41 -95 0
-41 -109 0
-41 -124 0
-41 -140 0
-55 -70 0
-55 -95 0
-55 -109 0
-55 -124 0
-55 -140 0
-70 -95 0
-70 -109 0
-70 -124 0
-70 -140 0
-95 -109 0
-95 -124 0
-95 -140 0
-109 -124 0
-109 -140 0
-124 -140 0
